p td 460 460
0 1
0 459
1 2
2 3
3 16
4 5
5 6
6 428
7 8
8 9
9 10
10 11
10 254
11 12
12 13
13 14
14 15
15 16
16 347
17 27
18 19
19 20
20 21
21 22
22 23
23 24
23 241
24 25
25 26
26 27
27 28
27 218
28 29
29 30
30 31
31 32
32 33
32 259
33 34
34 35
35 36
36 37
36 222
37 432
37 379
38 458
39 40
40 41
41 42
42 43
43 44
44 45
45 46
46 247
47 48
48 49
49 50
49 155
50 51
51 52
52 370
53 254
54 55
55 56
55 451
56 57
57 240
58 59
59 60
60 61
61 62
62 63
63 304
64 65
65 66
66 67
67 68
68 69
69 70
70 71
71 72
71 340
72 73
73 74
74 75
75 76
76 343
77 78
78 230
79 80
80 325
81 82
81 410
82 83
83 84
84 85
85 86
86 87
87 88
88 89
89 90
90 91
91 92
91 167
92 412
93 94
93 446
94 240
94 151
95 96
96 97
97 98
98 99
99 100
100 101
101 102
102 103
103 104
104 105
105 106
106 107
107 108
108 109
109 110
110 111
111 138
112 113
113 114
114 115
115 116
116 117
117 328
118 119
119 120
120 121
121 122
122 123
123 124
124 125
125 126
125 204
126 127
127 128
128 129
129 130
130 131
131 132
132 133
133 134
134 135
135 136
136 137
137 138
137 310
138 139
139 140
140 141
141 142
142 143
143 144
144 145
145 146
146 147
147 321
148 149
149 150
150 151
152 210
153 154
154 155
156 157
157 158
158 159
159 160
160 161
160 355
161 162
162 163
162 401
163 164
164 165
165 166
166 167
168 169
169 170
170 171
171 172
172 173
173 174
174 175
175 176
176 177
177 178
178 179
178 194
179 180
180 181
181 182
181 397
182 183
183 184
184 208
185 186
186 237
187 188
188 189
189 190
190 191
191 192
192 193
193 194
195 196
196 197
197 198
198 199
198 394
199 200
200 201
201 202
202 203
203 204
205 206
206 207
207 208
208 209
209 210
210 211
211 212
212 213
213 214
213 215
214 215
216 217
217 218
219 220
220 221
221 222
221 407
223 224
224 347
224 369
225 226
226 227
227 228
228 229
229 230
230 231
231 232
232 233
233 234
234 235
235 236
236 237
237 238
237 325
238 239
239 240
240 450
242 243
243 244
244 245
245 246
246 247
247 248
248 249
249 250
250 251
251 252
252 253
252 281
253 254
255 256
256 257
257 258
258 259
260 261
261 262
262 263
263 264
264 265
265 266
266 267
267 268
268 269
269 270
270 271
271 272
272 273
273 274
274 275
275 276
276 277
277 278
278 279
279 280
280 281
282 283
283 284
284 285
285 429
286 287
287 288
288 289
289 290
290 291
291 441
292 293
293 294
294 295
295 296
296 297
297 298
298 299
299 300
300 301
301 302
302 303
303 304
303 350
304 305
305 306
306 307
307 308
308 309
309 310
311 312
312 313
313 314
314 315
315 316
316 317
317 318
318 319
319 320
320 321
321 322
322 323
323 324
324 443
326 327
327 328
328 329
329 330
330 331
331 332
332 333
333 334
334 335
335 336
336 337
337 338
338 339
339 340
341 342
342 343
343 344
344 440
344 422
345 346
346 415
347 348
348 349
349 350
351 352
352 353
353 354
354 355
356 357
357 358
358 359
359 360
360 361
361 362
362 363
363 364
364 365
365 366
366 367
367 368
368 369
370 371
371 372
372 373
372 376
373 374
374 375
375 376
376 378
377 378
380 381
381 382
382 383
383 384
384 385
385 386
386 387
387 395
388 389
389 390
390 391
391 392
392 393
393 403
395 396
396 397
398 399
399 400
400 401
402 403
403 404
404 405
405 406
406 407
408 409
409 410
411 412
412 413
413 414
414 415
415 416
416 417
417 418
418 419
419 420
420 421
421 422
423 424
424 425
425 426
426 427
427 428
428 429
429 430
430 431
431 432
432 433
433 434
434 435
435 436
436 437
437 438
438 439
439 440
440 441
441 442
442 443
443 444
444 445
445 446
447 448
448 449
449 450
450 451
452 453
453 454
454 455
455 456
456 457
457 458
458 459
